33D32945 STP File, STP Format Version 1.0

SECTION Comments
Name  	"W1"
Creator	"Daisy Jørgensen"
Problem	"3-dimensional Geometric Steiner Minimum Tree"
Remark	"Converted automatically."
END

SECTION Graph
Nodes 506
END

SECTION Coordinates
DDD 1 -19.43 8.43 4.94
DDD 2 -19.08 13.46 3.17
DDD 3 -17.40 10.86 5.14
DDD 4 -19.71 11.20 5.90
DDD 5 -20.11 11.18 4.32
DDD 6 -18.13 13.04 5.22
DDD 7 -19.71 13.41 5.38
DDD 8 -16.82 14.00 3.30
DDD 9 -17.02 12.43 2.90
DDD 10 -17.23 13.58 1.77
DDD 11 -18.67 9.78 2.84
DDD 12 -17.99 11.26 2.85
DDD 13 -17.06 9.94 3.10
DDD 14 -16.57 8.15 8.85
DDD 15 -17.91 7.58 3.51
DDD 16 -16.82 9.26 6.49
DDD 17 -18.63 7.02 6.72
DDD 18 -17.14 5.49 6.31
DDD 19 -15.93 6.36 6.97
DDD 20 -15.45 6.12 4.73
DDD 21 -15.87 7.68 4.95
DDD 22 -18.36 4.92 3.57
DDD 23 -16.76 4.91 2.90
DDD 24 -18.42 4.64 10.58
DDD 25 -19.24 6.48 8.75
DDD 26 -17.69 7.65 10.90
DDD 27 -19.56 7.88 12.12
DDD 28 -20.41 6.83 11.19
DDD 29 -19.95 10.17 11.85
DDD 30 -20.80 7.62 8.72
DDD 31 -20.84 11.99 10.62
DDD 32 -21.70 9.44 7.47
DDD 33 -22.29 12.57 8.87
DDD 34 -18.51 4.76 15.10
DDD 35 -17.37 6.49 12.90
DDD 36 -17.19 3.65 12.44
DDD 37 -15.72 3.64 14.28
DDD 38 -15.93 5.25 14.45
DDD 39 -14.60 3.92 12.28
DDD 40 -13.90 4.92 13.37
DDD 41 -15.41 6.67 12.48
DDD 42 -15.65 5.65 11.22
DDD 43 -13.08 6.69 12.01
DDD 44 -13.94 7.24 10.73
DDD 45 -12.58 5.85 9.70
DDD 46 -12.48 4.83 10.97
DDD 47 -13.81 4.83 10.02
DDD 48 -18.51 0.82 15.59
DDD 49 -18.81 2.35 13.09
DDD 50 -20.47 3.24 15.26
DDD 51 -21.51 1.00 14.57
DDD 52 -20.78 1.41 13.17
DDD 53 -22.06 3.57 13.48
DDD 54 -24.04 2.18 12.47
DDD 55 -22.74 2.65 11.59
DDD 56 -22.79 1.15 12.23
DDD 57 -22.94 2.68 15.64
DDD 58 -24.01 3.43 14.65
DDD 59 -23.95 1.80 14.71
DDD 60 -21.56 -0.90 17.85
DDD 61 -20.96 2.04 17.16
DDD 62 -18.73 0.51 18.09
DDD 63 -21.09 1.24 19.56
DDD 64 -19.00 1.02 21.22
DDD 65 -20.23 -0.06 21.10
DDD 66 -18.86 -0.27 20.23
DDD 67 -20.25 3.22 20.01
DDD 68 -18.72 2.65 20.09
DDD 69 -19.38 2.99 18.64
DDD 70 -18.09 -4.21 18.99
DDD 71 -18.52 -1.66 18.14
DDD 72 -20.95 -3.22 18.05
DDD 73 -18.69 -3.70 16.34
DDD 74 -20.07 -3.21 14.56
DDD 75 -20.26 -1.98 15.62
DDD 76 -20.04 -5.52 15.48
DDD 77 -19.52 -5.77 17.01
DDD 78 -21.06 -5.29 16.73
DDD 79 -22.17 -3.77 14.69
DDD 80 -22.19 -3.63 16.32
DDD 81 -22.40 -2.31 15.38
DDD 82 -21.19 -7.25 20.33
DDD 83 -18.04 -4.03 22.60
DDD 84 -21.12 -4.52 19.79
DDD 85 -18.64 -5.47 20.95
DDD 86 -20.33 -5.88 22.83
DDD 87 -21.03 -4.59 22.13
DDD 88 -19.09 -2.86 24.55
DDD 89 -20.62 -3.65 24.34
DDD 90 -18.02 -9.71 22.54
DDD 91 -18.14 -7.62 21.09
DDD 92 -18.88 -9.60 19.77
DDD 93 -20.32 -9.43 20.51
DDD 94 -16.90 -12.65 24.03
DDD 95 -20.03 -11.70 21.16
DDD 96 -19.29 -11.97 23.77
DDD 97 -19.53 -14.21 23.51
DDD 98 -19.15 -14.14 21.93
DDD 99 -21.24 -12.88 21.64
DDD 100 -21.62 -13.38 23.15
DDD 101 -21.38 -15.66 22.40
DDD 102 -21.15 -15.10 20.89
DDD 103 -23.34 -15.57 20.84
DDD 104 -23.37 -13.98 21.23
DDD 105 -23.86 -16.20 22.94
DDD 106 -23.41 -14.76 23.57
DDD 107 -24.80 -14.89 22.71
DDD 108 -13.95 -11.11 22.98
DDD 109 -17.31 -12.26 20.93
DDD 110 -15.05 -13.22 22.38
DDD 111 -13.98 -12.83 20.16
DDD 112 -15.54 -11.51 19.22
DDD 113 -16.05 -14.83 20.40
DDD 114 -14.80 -14.91 19.35
DDD 115 -14.53 -15.00 20.96
DDD 116 -16.09 -8.08 22.56
DDD 117 -15.47 -10.39 20.32
DDD 118 -13.29 -9.02 21.41
DDD 119 -15.43 -7.87 19.91
DDD 120 -14.19 -8.67 19.21
DDD 121 -12.70 -7.00 19.76
DDD 122 -14.11 -6.44 17.91
DDD 123 -15.12 -5.67 18.93
DDD 124 -13.61 -5.10 18.69
DDD 125 -13.65 -5.03 21.01
DDD 126 -14.73 -6.11 21.56
DDD 127 -13.14 -6.32 21.87
DDD 128 -13.03 -5.03 24.74
DDD 129 -13.01 -7.79 23.18
DDD 130 -15.41 -7.06 24.63
DDD 131 -13.96 -6.89 26.53
DDD 132 -12.77 -7.53 25.60
DDD 133 -15.21 -8.97 26.01
DDD 134 -13.99 -9.07 27.10
DDD 135 -13.43 -9.60 24.35
DDD 136 -14.11 -10.78 25.26
DDD 137 -11.76 -11.02 25.24
DDD 138 -12.28 -10.69 26.75
DDD 139 -11.41 -8.57 25.08
DDD 140 -11.45 -8.61 26.71
DDD 141 -10.31 -9.45 25.90
DDD 142 -14.84 -3.44 21.32
DDD 143 -15.96 -5.10 23.58
DDD 144 -14.26 -2.94 24.39
DDD 145 -15.78 -2.81 23.81
DDD 146 -10.60 -1.75 22.06
DDD 147 -15.54 1.82 20.45
DDD 148 -13.91 2.51 19.15
DDD 149 -13.01 -1.64 23.15
DDD 150 -13.18 -2.09 20.28
DDD 151 -12.11 0.31 20.59
DDD 152 -13.34 0.28 21.66
DDD 153 -14.73 -0.44 19.75
DDD 154 -13.50 0.08 18.82
DDD 155 -9.46 -1.35 17.74
DDD 156 -11.35 -2.45 19.08
DDD 157 -8.86 -2.41 20.57
DDD 158 -8.21 -4.34 19.24
DDD 159 -10.55 -3.86 18.12
DDD 160 -9.72 -4.28 21.52
DDD 161 -10.13 -5.61 20.67
DDD 162 -8.58 -5.37 21.12
DDD 163 -5.20 -2.87 16.66
DDD 164 -6.85 -2.34 19.22
DDD 165 -7.29 -0.52 17.01
DDD 166 -5.00 0.06 17.29
DDD 167 -5.15 -2.05 19.08
DDD 168 -6.50 0.29 19.74
DDD 169 -5.24 1.23 19.34
DDD 170 -6.63 1.32 18.48
DDD 171 -6.46 -1.25 12.60
DDD 172 -7.60 -1.56 15.10
DDD 173 -5.73 -3.69 14.48
DDD 174 -8.32 -3.31 13.29
DDD 175 -8.83 -5.29 14.52
DDD 176 -6.27 -5.26 12.89
DDD 177 -7.83 -5.71 12.69
DDD 178 -7.20 -4.52 11.77
DDD 179 -3.03 -4.14 10.78
DDD 180 -4.35 -3.58 12.77
DDD 181 -4.83 -1.56 10.78
DDD 182 -2.24 -1.63 11.97
DDD 183 -3.40 -0.66 12.58
DDD 184 -2.46 -0.48 9.87
DDD 185 -1.94 0.49 11.08
DDD 186 -4.26 1.18 11.36
DDD 187 -4.58 0.41 9.96
DDD 188 -2.71 2.58 10.21
DDD 189 -4.23 2.75 9.63
DDD 190 -3.34 0.90 8.07
DDD 191 -3.25 2.49 7.70
DDD 192 -1.96 1.72 8.35
DDD 193 -3.49 -1.99 6.41
DDD 194 -4.01 -1.96 8.72
DDD 195 -2.17 -4.08 8.34
DDD 196 -4.35 -4.80 6.83
DDD 197 -3.48 -5.72 7.85
DDD 198 -4.73 -4.84 8.42
DDD 199 -3.38 -3.64 3.69
DDD 200 -1.22 -4.18 6.27
DDD 201 -1.07 -1.84 4.87
DDD 202 -0.48 -4.52 4.04
DDD 203 0.37 -2.22 2.55
DDD 204 0.42 -3.78 2.07
DDD 205 -1.01 -2.99 2.16
DDD 206 1.17 -4.00 5.45
DDD 207 1.80 -3.35 4.09
DDD 208 1.04 -2.40 5.17
DDD 209 -2.93 0.28 0.68
DDD 210 -7.18 -0.41 2.27
DDD 211 -5.86 0.35 0.69
DDD 212 -2.09 -0.81 3.20
DDD 213 -4.35 -2.20 2.04
DDD 214 -4.38 0.54 2.86
DDD 215 -5.17 -0.67 3.62
DDD 216 -2.84 0.66 -2.68
DDD 217 -3.78 -2.68 -0.02
DDD 218 -1.98 -1.38 -1.55
DDD 219 -2.57 -2.88 -2.97
DDD 220 -3.84 -3.26 -2.01
DDD 221 -4.01 -2.14 -3.19
DDD 222 -4.30 3.50 -2.38
DDD 223 -9.06 2.60 -0.11
DDD 224 -9.22 4.23 -1.57
DDD 225 -5.29 -0.46 -1.05
DDD 226 -5.55 1.47 -2.97
DDD 227 -6.73 1.89 -0.42
DDD 228 -7.20 0.60 -1.31
DDD 229 -8.32 1.84 -2.74
DDD 230 -7.27 3.09 -2.63
DDD 231 -1.63 4.99 -0.71
DDD 232 -4.51 1.96 0.36
DDD 233 -3.93 4.65 0.14
DDD 234 -2.70 2.78 1.94
DDD 235 -4.48 4.08 3.27
DDD 236 -2.20 4.60 3.30
DDD 237 -1.64 4.95 1.80
DDD 238 -3.04 5.61 2.32
DDD 239 0.60 3.97 -3.25
DDD 240 -1.93 1.86 -0.49
DDD 241 0.46 3.23 -0.89
DDD 242 0.67 1.06 -2.37
DDD 243 1.06 1.16 -0.79
DDD 244 -0.42 0.63 -1.23
DDD 245 -1.16 5.56 -5.77
DDD 246 -4.85 1.57 -7.11
DDD 247 -5.41 3.57 -7.83
DDD 248 -2.09 2.33 -3.11
DDD 249 -0.81 3.14 -5.44
DDD 250 -3.58 2.79 -4.84
DDD 251 -2.61 1.76 -5.65
DDD 252 -2.58 3.13 -7.50
DDD 253 -3.35 4.32 -6.70
DDD 254 -1.31 8.67 -4.40
DDD 255 -3.02 4.85 -3.32
DDD 256 -3.24 7.18 -4.76
DDD 257 -3.22 7.21 -1.92
DDD 258 -4.44 6.48 -2.72
DDD 259 -5.34 8.49 -2.44
DDD 260 -4.60 8.74 -3.87
DDD 261 -3.90 10.53 -2.71
DDD 262 -2.66 9.49 -2.47
DDD 263 -3.75 8.83 -0.39
DDD 264 -4.78 10.08 -0.62
DDD 265 -2.04 10.16 0.10
DDD 266 -2.65 11.41 -0.76
DDD 267 -3.28 11.04 0.70
DDD 268 2.10 8.74 -4.28
DDD 269 -0.82 6.29 -2.39
DDD 270 0.52 8.73 -2.40
DDD 271 0.70 6.94 -0.73
DDD 272 1.77 6.25 -1.74
DDD 273 2.08 7.72 -1.11
DDD 274 2.93 8.12 -7.12
DDD 275 1.25 5.71 -4.05
DDD 276 3.50 6.49 -5.38
DDD 277 1.50 4.67 -6.31
DDD 278 2.76 4.27 -5.35
DDD 279 2.47 6.08 -8.48
DDD 280 4.35 3.01 -6.48
DDD 281 3.79 5.62 -10.41
DDD 282 5.66 2.56 -8.40
DDD 283 5.39 3.86 -10.37
DDD 284 1.13 10.12 -8.94
DDD 285 0.32 6.38 -6.88
DDD 286 0.85 7.68 -9.17
DDD 287 -1.39 8.24 -9.29
DDD 288 -1.57 8.04 -7.68
DDD 289 -1.12 5.70 -7.98
DDD 290 -1.09 5.95 -9.59
DDD 291 -3.42 6.80 -8.22
DDD 292 -3.24 5.19 -8.42
DDD 293 -4.44 5.85 -10.24
DDD 294 -2.92 5.67 -10.81
DDD 295 -3.09 8.21 -9.99
DDD 296 -3.03 7.69 -11.54
DDD 297 -4.47 7.92 -10.81
DDD 298 2.34 12.76 -7.09
DDD 299 1.21 14.83 -4.78
DDD 300 0.06 9.21 -6.12
DDD 301 0.05 11.82 -6.96
DDD 302 1.06 11.19 -4.39
DDD 303 -0.50 10.83 -4.73
DDD 304 -0.76 12.84 -3.84
DDD 305 -0.60 13.26 -5.40
DDD 306 2.63 13.82 -2.99
DDD 307 1.79 12.30 -3.03
DDD 308 5.47 12.09 -8.38
DDD 309 2.76 9.83 -6.00
DDD 310 4.68 11.85 -6.07
DDD 311 5.44 9.18 -6.58
DDD 312 4.76 9.51 -5.13
DDD 313 5.89 12.04 -4.40
DDD 314 7.72 8.82 -6.20
DDD 315 7.99 12.79 -3.58
DDD 316 9.84 9.56 -5.39
DDD 317 10.30 11.63 -2.94
DDD 318 5.14 12.02 -11.68
DDD 319 3.79 9.43 -8.45
DDD 320 5.56 9.94 -10.41
DDD 321 4.13 8.25 -10.81
DDD 322 2.82 9.19 -10.59
DDD 323 3.73 9.36 -11.94
DDD 324 4.36 15.38 -11.43
DDD 325 -0.45 13.85 -11.53
DDD 326 2.68 11.80 -9.72
DDD 327 2.81 13.51 -11.89
DDD 328 1.77 14.77 -9.68
DDD 329 1.20 13.24 -9.79
DDD 330 1.44 15.41 -12.93
DDD 331 0.72 16.44 -11.74
DDD 332 7.68 16.04 -9.87
DDD 333 4.09 14.24 -6.13
DDD 334 3.88 16.39 -6.54
DDD 335 4.23 13.80 -8.70
DDD 336 5.32 16.34 -9.11
DDD 337 6.36 16.07 -7.11
DDD 338 6.28 14.44 -7.21
DDD 339 9.33 14.04 -12.77
DDD 340 9.21 12.14 -8.23
DDD 341 6.46 13.14 -9.77
DDD 342 9.13 13.90 -10.27
DDD 343 9.04 11.61 -11.35
DDD 344 7.68 11.49 -10.45
DDD 345 10.14 9.81 -9.93
DDD 346 11.30 10.87 -9.19
DDD 347 6.38 13.17 -16.16
DDD 348 6.25 13.69 -12.15
DDD 349 7.77 14.57 -14.46
DDD 350 6.20 14.94 -14.17
DDD 351 3.95 10.46 -13.45
DDD 352 6.28 11.88 -13.29
DDD 353 5.82 10.86 -15.97
DDD 354 6.81 9.47 -13.66
DDD 355 6.86 7.55 -15.22
DDD 356 5.40 7.92 -14.60
DDD 357 5.78 8.39 -16.12
DDD 358 8.08 9.42 -16.21
DDD 359 8.28 10.74 -15.28
DDD 360 8.77 9.28 -14.74
DDD 361 1.81 7.67 -16.84
DDD 362 -1.07 10.90 -16.25
DDD 363 -0.50 8.83 -15.80
DDD 364 3.93 9.84 -16.54
DDD 365 1.92 9.71 -14.45
DDD 366 1.50 10.22 -17.24
DDD 367 1.37 11.33 -16.05
DDD 368 3.41 5.50 -13.11
DDD 369 2.08 7.60 -13.70
DDD 370 2.12 5.53 -15.67
DDD 371 0.78 5.61 -14.74
DDD 372 4.21 2.28 -14.07
DDD 373 1.20 3.44 -13.99
DDD 374 2.63 3.41 -11.60
DDD 375 2.07 1.12 -11.51
DDD 376 -0.37 1.38 -11.91
DDD 377 0.30 2.38 -10.81
DDD 378 -0.02 2.92 -12.32
DDD 379 1.02 1.41 -14.18
DDD 380 2.42 0.65 -13.85
DDD 381 1.02 0.03 -13.30
DDD 382 6.08 0.00 -10.63
DDD 383 4.56 2.44 -10.94
DDD 384 6.41 1.96 -13.11
DDD 385 8.05 2.21 -11.27
DDD 386 6.81 2.91 -10.46
DDD 387 8.41 3.47 -13.91
DDD 388 8.60 5.97 -14.42
DDD 389 6.32 5.12 -9.68
DDD 390 6.88 9.00 -11.02
DDD 391 7.88 8.22 -13.04
DDD 392 6.12 7.48 -9.37
DDD 393 9.33 -1.96 -13.39
DDD 394 7.14 -0.04 -13.60
DDD 395 6.71 -2.10 -11.60
DDD 396 6.52 -3.63 -13.31
DDD 397 7.01 -1.53 -15.14
DDD 398 4.71 -2.57 -14.66
DDD 399 4.47 -2.71 -13.05
DDD 400 4.94 -1.28 -13.68
DDD 401 9.95 -5.01 -10.03
DDD 402 8.46 -2.69 -10.45
DDD 403 11.01 -2.62 -11.82
DDD 404 11.93 -1.76 -10.07
DDD 405 11.17 -2.80 -9.07
DDD 406 9.32 -2.08 -7.75
DDD 407 10.74 0.35 -10.77
DDD 408 7.92 -0.32 -6.98
DDD 409 9.34 2.12 -10.01
DDD 410 8.19 2.93 -8.07
DDD 411 13.91 -7.34 -10.52
DDD 412 11.22 -5.55 -14.23
DDD 413 11.18 -7.72 -14.57
DDD 414 12.19 -4.43 -12.17
DDD 415 11.07 -6.90 -11.29
DDD 416 12.69 -7.90 -12.67
DDD 417 13.36 -6.43 -12.95
DDD 418 14.49 -8.37 -7.10
DDD 419 12.71 -6.50 -4.53
DDD 420 14.69 -5.95 -5.29
DDD 421 11.69 -5.70 -8.99
DDD 422 14.30 -6.10 -8.11
DDD 423 11.84 -5.77 -6.69
DDD 424 13.03 -4.67 -6.90
DDD 425 14.12 -11.59 -7.45
DDD 426 11.53 -8.20 -8.18
DDD 427 12.33 -10.19 -6.50
DDD 428 10.23 -10.04 -7.72
DDD 429 11.00 -10.76 -8.96
DDD 430 10.84 -11.54 -7.54
DDD 431 15.64 -9.11 -10.93
DDD 432 13.12 -9.89 -9.91
DDD 433 15.15 -11.94 -9.59
DDD 434 14.99 -12.33 -11.87
DDD 435 14.66 -10.29 -12.71
DDD 436 13.03 -13.41 -11.90
DDD 437 13.18 -13.14 -10.29
DDD 438 12.23 -12.17 -11.19
DDD 439 19.86 -11.52 -10.79
DDD 440 17.29 -11.51 -9.73
DDD 441 18.02 -8.93 -10.83
DDD 442 19.86 -9.04 -9.20
DDD 443 18.93 -10.12 -8.42
DDD 444 18.58 -8.06 -7.43
DDD 445 17.22 -8.44 -8.25
DDD 446 19.16 -6.90 -9.63
DDD 447 18.27 -6.13 -8.50
DDD 448 16.58 -7.59 -10.07
DDD 449 17.54 -6.70 -11.05
DDD 450 16.84 -4.74 -10.07
DDD 451 15.49 -5.60 -10.41
DDD 452 16.06 -5.56 -8.88
DDD 453 21.72 -8.41 -13.34
DDD 454 19.17 -9.09 -12.67
DDD 455 20.88 -11.41 -12.95
DDD 456 19.89 -9.87 -15.15
DDD 457 18.03 -10.67 -14.23
DDD 458 21.31 -11.13 -16.24
DDD 459 21.55 -12.08 -14.93
DDD 460 20.30 -12.38 -15.93
DDD 461 24.76 -10.91 -15.64
DDD 462 23.02 -11.26 -13.68
DDD 463 24.07 -8.55 -13.68
DDD 464 25.98 -9.27 -12.66
DDD 465 25.55 -10.84 -12.81
DDD 466 25.81 -8.37 -10.53
DDD 467 23.22 -11.37 -11.62
DDD 468 24.84 -8.31 -8.37
DDD 469 22.24 -11.32 -9.46
DDD 470 23.05 -9.79 -7.82
DDD 471 28.34 -8.04 -16.25
DDD 472 25.65 -7.92 -15.17
DDD 473 25.93 -9.76 -17.40
DDD 474 24.88 -7.81 -18.08
DDD 475 26.04 -8.05 -19.83
DDD 476 27.06 -6.42 -16.80
DDD 477 26.04 -5.67 -17.83
DDD 478 25.47 -6.29 -16.43
DDD 479 29.81 -12.13 -18.63
DDD 480 27.81 -10.81 -17.65
DDD 481 30.24 -9.37 -17.11
DDD 482 31.08 -11.38 -15.91
DDD 483 31.06 -9.90 -14.29
DDD 484 29.79 -9.13 -14.97
DDD 485 29.53 -10.37 -13.94
DDD 486 28.32 -11.72 -15.19
DDD 487 28.99 -12.61 -16.38
DDD 488 29.56 -12.73 -14.86
DDD 489 33.75 -9.59 -20.24
DDD 490 31.72 -9.63 -18.69
DDD 491 31.88 -12.15 -20.04
DDD 492 30.26 -11.14 -21.37
DDD 493 31.56 -12.27 -22.71
DDD 494 30.99 -8.84 -20.68
DDD 495 31.97 -8.93 -21.99
DDD 496 30.35 -9.03 -22.17
DDD 497 35.10 -10.42 -22.53
DDD 498 36.14 -13.33 -18.05
DDD 499 38.10 -14.32 -17.89
DDD 500 33.94 -12.73 -20.44
DDD 501 36.07 -11.17 -19.72
DDD 502 36.75 -12.93 -21.73
DDD 503 35.79 -13.64 -20.61
DDD 504 38.11 -12.22 -19.77
DDD 505 38.26 -13.75 -20.31
DDD 506 37.13 -10.12 -21.75
END

EOF
